
Gurobi 11.0.3 (linux64) logging started Fri Nov 22 21:10:48 2024

Set parameter LogFile to value "/home/yihong/Coding/OR_SUC/SUC_results_bigM100000_thread4/case24_ieee_rts_theta0.1_epsilon0.025_gurobi_seed650000_num_gen100_N_WDR100_load_scaling_factor1_proposed_T8quadra_cost.txt"
Set parameter TimeLimit to value 3600
Gurobi Optimizer version 11.0.3 build v11.0.3rc0 (linux64 - "Ubuntu 20.04.6 LTS")

CPU model: AMD EPYC 7532 32-Core Processor, instruction set [SSE2|AVX|AVX2]
Thread count: 64 physical cores, 128 logical processors, using up to 4 threads

Optimize a model with 16982 rows, 10021 columns and 235066 nonzeros
Model fingerprint: 0xa2fb7f1c
Model has 800 quadratic constraints
Variable types: 9221 continuous, 800 integer (800 binary)
Coefficient statistics:
  Matrix range     [3e-04, 2e+03]
  QMatrix range    [2e-03, 8e-03]
  QLMatrix range   [5e-02, 6e+01]
  Objective range  [1e+00, 1e+00]
  Bounds range     [1e+00, 1e+00]
  RHS range        [1e+00, 9e+03]
Presolve removed 13851 rows and 4465 columns
Presolve time: 0.07s
Presolved: 3131 rows, 5556 columns, 22261 nonzeros
Presolved model has 800 quadratic constraint(s)
Variable types: 4756 continuous, 800 integer (800 binary)

Root relaxation: objective 1.452410e+04, 2273 iterations, 0.03 seconds (0.04 work units)

    Nodes    |    Current Node    |     Objective Bounds      |     Work
 Expl Unexpl |  Obj  Depth IntInf | Incumbent    BestBd   Gap | It/Node Time

     0     0 14524.0980    0    8          - 14524.0980      -     -    0s
     0     0 170266.185    0  176          - 170266.185      -     -    0s
     0     0 261867.729    0  128          - 261867.729      -     -    0s
     0     0 261869.830    0  136          - 261869.830      -     -    0s
     0     0 261910.291    0   96          - 261910.291      -     -    0s
     0     0 261910.749    0   96          - 261910.749      -     -    0s
     0     0 261910.834    0   96          - 261910.834      -     -    0s
     0     2 261910.834    0   96          - 261910.834      -     -    0s
H  200   227                    262023.94030 261916.591  0.04%   8.0    1s
*  200   227              51    262023.94030 261916.591  0.04%   8.0    1s

Cutting planes:
  Gomory: 60
  Implied bound: 219
  MIR: 16
  Flow cover: 56

Explored 252 nodes (7792 simplex iterations) in 1.37 seconds (1.43 work units)
Thread count was 4 (of 128 available processors)

Solution count 2: 262024 262024 

Optimal solution found (tolerance 1.00e-03)
Warning: max constraint violation (2.3122e-07) exceeds tolerance
Best objective 2.620239403029e+05, best bound 2.619165912722e+05, gap 0.0410%
